proyfinal/src/viki/013/experimentInOfficeAgust.take6.output/6de55b29-463c-483a-9c9e-6c2cd46f38a7.als.dat
{'cnf.clauses': '118081',
 'cnf.totvars': '69608',
 'conflict literals': '175',
 'conflicts': '36',
 'decisions': '2537',
 'memused.mb': '16.05',
 'outcome': 'UNSAT',
 'propagations': '71584',
 'restarts': '1',
 'solver.msecs': 41,
 'task.msecs': 113}
