proyfinal/src/viki/013/experimentInOfficeAgust.take6.output/6de55b29-463c-483a-9c9e-6c2cd46f38a7.als.out
Reading from standard input... Use '--help' for help.
============================[ Problem Statistics ]=============================
|                                                                             |
|  Number of variables:         69608                                         |
|  Number of clauses:          118081                                         |
|  Parse time:                   0.03 s                                       |
|                                                                             |
============================[ Search Statistics ]==============================
| Conflicts |          ORIGINAL         |          LEARNT          | Progress |
|           |    Vars  Clauses Literals |    Limit  Clauses Lit/Cl |          |
===============================================================================
===============================================================================
restarts              : 1
conflicts             : 36             (861 /sec)
decisions             : 2537           (0.00 % random) (60710 /sec)
propagations          : 71584          (1712987 /sec)
conflict literals     : 175            (18.60 % deleted)
Memory used           : 16.05 MB
CPU time              : 0.041789 s

UNSATISFIABLE
